30 45
1 2 1
1 3 -1
1 4 1
1 5 -1
2 5 -1
2 6 1
3 7 -1
3 8 1
4 8 1
4 9 -1
4 10 1
5 9 -1
5 11 -1
5 12 1
6 10 1
6 13 -1
6 14 1
7 11 -1
7 15 -1
7 16 1
8 12 1
8 17 -1
8 18 1
9 13 -1
9 19 -1
9 20 1
10 14 1
10 21 -1
10 22 1
11 23 -1
11 24 1
12 25 -1
12 26 1
13 27 -1
13 28 1
14 29 -1
14 30 1
15 16 -1
17 18 1
19 20 -1
21 22 1
23 24 -1
25 26 1
27 28 -1
29 30 1